70
12
0 13 15 18 19 23 25 27 28 29 30 32 34 35 36 39 40 41 42 43 46 48 50 51 53 54 55 56 57 58 59 60 63 64 66 67 69
1 13 14 15 18 20 25 29 30 32 34 35 37 38 41 42 43 44 45 50 53 54 56 60 63 64 65 66
2 14 17 18 21 27 28 29 30 32 34 35 38 39 40 41 46 48 50 51 53 54 55 56 57 58 59 63 65 68
3 13 14 15 21 29 32 34 38 40 41 42 46 48 50 51 52 53 55 57 58 61 63 67 68 69
4 15 18 27 28 29 30 33 34 38 41 42 43 46 50 51 55 56 58 59 60 63 64 66 67 69
5 14 15 19 20 21 22 23 24 28 30 32 34 41 48 50 51 54 55 56 59 61 64 67 68
6 13 15 17 18 24 27 28 29 30 37 40 42 43 47 48 50 51 52 53 54 55 56 57 59 60 61 63 64 66 67 68 69
7 15 21 25 27 37 40 41 43 53 55 56 58 68 69
8 16 17 18 23 32 34 37 38 50 57 67
9 17 23 24 25 32 35 37 43 45 49 56 57
10 24 33 36 38 48 54 60 62 65
11 12 18 26 31 41 46 60 68
